Data path: /scratch/opt/lxu/CFLG/benchmarks/Kgroup_A
Instance: K100.9.red
Result path: /scratch/opt/lxu/CFLG/results/Kgroup_A
Solver: Gurobi
Time limit: 7200
Formulation: EF
Cover: Large
julia --project=. src/main.jl /scratch/opt/lxu/CFLG/benchmarks/Kgroup_A K100.9.red /scratch/opt/lxu/CFLG/results/Kgroup_A Gurobi 7200 EF Large
The latest version of Julia in the `release` channel is 1.11.5+0.x64.linux.gnu. You currently have `1.11.4+0.x64.linux.gnu` installed. Run:

  juliaup update

in your terminal shell to install Julia 1.11.5+0.x64.linux.gnu and update the `release` channel to that version.
/scratch/opt/lxu/CFLG/benchmarks/Kgroup_A Gurobi 7200.0 /scratch/opt/lxu/CFLG/results/Kgroup_A K100.9.red EF Large
/scratch/opt/lxu/CFLG/benchmarks/Kgroup_A/K100.9.red

 read graph
data loaded


after absorb:21 22

max_piece:2
problem_graph/original graph: node: 30/22 edge: 78/70 dlt: 0.5840503453289713 break_avg_len: 0.26207387290402545 break_max_len: 0.5elapsed CPU time: 0.02644 seconds
Set parameter TokenServer to value "solice01.zib.de"
Set parameter Threads to value 1
Set parameter OutputFlag to value 1
Set parameter MIPGap to value 0.0001
Set parameter TimeLimit to value 7199.97356

 model loaded

Gurobi Optimizer version 12.0.1 build v12.0.1rc0 (linux64 - "Debian GNU/Linux 12 (bookworm)")

CPU model: Intel(R) Xeon(R) Gold 5222 CPU @ 3.80GHz, instruction set [SSE2|AVX|AVX2|AVX512]
Thread count: 8 physical cores, 16 logical processors, using up to 1 threads

Non-default parameters:
TimeLimit  7199.97356
Threads  1

Optimize a model with 1424202 rows, 482664 columns and 3792282 nonzeros
Model fingerprint: 0x5f1a0aeb
Variable types: 7098 continuous, 475566 integer (475566 binary)
Coefficient statistics:
  Matrix range     [2e-02, 6e+00]
  Objective range  [1e+00, 1e+00]
  Bounds range     [2e-02, 5e-01]
  RHS range        [6e-04, 6e+00]
Presolve removed 384939 rows and 85388 columns (presolve time = 5s)...
Presolve removed 385583 rows and 85388 columns (presolve time = 10s)...
Presolve removed 530022 rows and 169583 columns (presolve time = 15s)...
Presolve removed 530022 rows and 169583 columns (presolve time = 20s)...
Presolve removed 530022 rows and 169583 columns (presolve time = 25s)...
Presolve removed 530022 rows and 169583 columns (presolve time = 30s)...
Presolve removed 530022 rows and 169583 columns (presolve time = 35s)...
Presolve removed 530022 rows and 169583 columns (presolve time = 40s)...
Presolve removed 530022 rows and 169583 columns (presolve time = 45s)...
Presolve removed 530022 rows and 169583 columns (presolve time = 50s)...
Presolve removed 530022 rows and 169583 columns (presolve time = 55s)...
Presolve removed 530022 rows and 169583 columns (presolve time = 60s)...
Presolve removed 530022 rows and 169583 columns (presolve time = 65s)...
Presolve removed 530022 rows and 178084 columns (presolve time = 77s)...
Presolve removed 746701 rows and 184344 columns (presolve time = 80s)...
Presolve removed 748657 rows and 185200 columns
Presolve time: 81.94s
Presolved: 675545 rows, 297464 columns, 1789382 nonzeros
Variable types: 1064 continuous, 296400 integer (296400 binary)
Found heuristic solution: objective 77.0000000
Found heuristic solution: objective 76.0000000

Root simplex log...

Iteration    Objective       Primal Inf.    Dual Inf.      Time
       0    0.0000000e+00   1.802647e+02   0.000000e+00     90s
   25314    9.0171969e-05   1.325558e+02   0.000000e+00     96s
   37553    1.2617996e-04   1.299725e+02   0.000000e+00    100s
   49768    1.5806540e-04   1.490494e+02   0.000000e+00    105s
   57768    2.4254792e-02   1.285601e+02   0.000000e+00    110s
   60753    3.4591416e-02   1.052473e+02   0.000000e+00    115s
   63030    6.3622051e-02   9.740128e+01   0.000000e+00    121s
   66206    1.4285535e-01   2.434176e+02   0.000000e+00    125s
   68236    1.4286222e-01   1.792974e+02   0.000000e+00    130s
   69656    1.4288245e-01   2.355395e+02   0.000000e+00    135s
   70776    1.4288559e-01   1.784243e+02   0.000000e+00    140s
   71776    1.4288903e-01   1.686366e+02   0.000000e+00    145s
   72726    1.4289182e-01   1.778827e+02   0.000000e+00    150s
   73576    1.4289706e-01   1.887651e+02   0.000000e+00    155s
   74376    1.4290051e-01   1.693911e+02   0.000000e+00    160s
   75076    1.4290542e-01   1.366228e+02   0.000000e+00    165s
   75776    1.4291246e-01   1.712680e+02   0.000000e+00    170s
   76516    1.4291598e-01   1.861912e+02   0.000000e+00    175s
   77246    1.4291962e-01   1.569413e+02   0.000000e+00    180s
   77956    1.4292154e-01   1.580924e+02   0.000000e+00    185s
   78666    1.4292282e-01   1.352180e+02   0.000000e+00    191s
   79226    1.4292422e-01   1.293476e+02   0.000000e+00    195s
   79886    1.4292569e-01   1.377274e+02   0.000000e+00    200s
   80526    1.4292914e-01   1.570921e+02   0.000000e+00    206s
   81126    1.4293281e-01   1.500297e+02   0.000000e+00    211s
   81596    1.4293514e-01   1.421811e+02   0.000000e+00    215s
   82136    1.4294471e-01   1.350867e+02   0.000000e+00    220s
   82676    1.4294585e-01   1.337296e+02   0.000000e+00    226s
   83216    1.4295044e-01   1.181093e+02   0.000000e+00    231s
   83756    1.4295164e-01   1.218962e+02   0.000000e+00    237s
   84326    1.4338901e-01   6.665969e+01   0.000000e+00    240s
   85566    1.4339245e-01   6.138506e+01   0.000000e+00    245s
   86816    1.4339900e-01   5.379205e+01   0.000000e+00    250s
   88056    1.4340597e-01   4.545010e+01   0.000000e+00    255s
   89286    1.4574528e-01   5.135516e+01   0.000000e+00    260s
   90676    1.4623910e-01   3.522731e+01   0.000000e+00    265s
  101066    1.4645063e-01   1.000732e+01   0.000000e+00    270s
  105282    1.4772766e-01   2.313365e+01   0.000000e+00    275s
  112704    1.4800759e-01   0.000000e+00   0.000000e+00    281s
  112704    1.4800759e-01   0.000000e+00   0.000000e+00    281s

Use crossover to convert LP symmetric solution to basic solution...

Root crossover log...

      55 DPushes remaining with DInf 0.0000000e+00               281s
       0 DPushes remaining with DInf 0.0000000e+00               281s

   40595 PPushes remaining with PInf 0.0000000e+00               281s
       0 PPushes remaining with PInf 0.0000000e+00               285s

  Push phase complete: Pinf 0.0000000e+00, Dinf 1.7055801e-14    285s


Root simplex log...

Iteration    Objective       Primal Inf.    Dual Inf.      Time
  153326    1.4800759e-01   0.000000e+00   0.000000e+00    285s
  153326    1.4800759e-01   0.000000e+00   0.000000e+00    285s

Root relaxation: objective 1.480076e-01, 153326 iterations, 199.12 seconds (271.90 work units)
Total elapsed time = 325.34s (DegenMoves)
Total elapsed time = 362.00s (DegenMoves)
Total elapsed time = 368.73s (DegenMoves)

    Nodes    |    Current Node    |     Objective Bounds      |     Work
 Expl Unexpl |  Obj  Depth IntInf | Incumbent    BestBd   Gap | It/Node Time

     0     0    0.14801    0 41123   76.00000    0.14801   100%     -  719s
     0     0    0.14801    0 41122   76.00000    0.14801   100%     -  720s
H    0     0                       5.0000000    0.14801  97.0%     -  725s
H    0     0                       4.0000000    0.14801  96.3%     -  735s
     0     0          -    0         4.00000    0.14801  96.3%     - 7199s

Cutting planes:
  Learned: 740

Explored 1 nodes (1724217 simplex iterations) in 7200.11 seconds (5053.10 work units)
Thread count was 1 (of 16 available processors)

Solution count 4: 4 5 76 77 

Time limit reached
Best objective 4.000000000000e+00, best bound 1.000000000000e+00, gap 75.0000%

User-callback calls 53056, time in user-callback 0.17 sec
Stat(MathOptInterface.TIME_LIMIT, 4.0, 1.0, 0.75, 0.0, 0.02644, 7200.124318122864, 1, Main.CFLG.EF, "", #undef)
